; benchmark generated from python API
(set-info :status unknown)
(declare-fun x_months () (_ BitVec 32))
(declare-fun x_beta () (_ BitVec 32))
(assert
 (bvsle (_ bv4294966096 32) x_months))
(assert
 (bvsge (_ bv1199 32) x_months))
(assert
 (let ((?x63836 (bvsmod x_months (_ bv48 32))))
 (let ((?x13 ((as const (Array (_ BitVec 32) (_ BitVec 32))) (_ bv0 32))))
 (let ((?x15 (store ?x13 (_ bv0 32) (_ bv31 32))))
 (let ((?x18 (store ?x15 (_ bv1 32) (_ bv30 32))))
 (let ((?x20 (store ?x18 (_ bv2 32) (_ bv31 32))))
 (let ((?x22 (store ?x20 (_ bv3 32) (_ bv30 32))))
 (let ((?x24 (store ?x22 (_ bv4 32) (_ bv31 32))))
 (let ((?x26 (store ?x24 (_ bv5 32) (_ bv31 32))))
 (let ((?x28 (store ?x26 (_ bv6 32) (_ bv30 32))))
 (let ((?x30 (store ?x28 (_ bv7 32) (_ bv31 32))))
 (let ((?x32 (store ?x30 (_ bv8 32) (_ bv30 32))))
 (let ((?x34 (store ?x32 (_ bv9 32) (_ bv31 32))))
 (let ((?x36 (store ?x34 (_ bv10 32) (_ bv31 32))))
 (let ((?x39 (store ?x36 (_ bv11 32) (_ bv28 32))))
 (let ((?x41 (store ?x39 (_ bv12 32) (_ bv31 32))))
 (let ((?x43 (store ?x41 (_ bv13 32) (_ bv30 32))))
 (let ((?x45 (store ?x43 (_ bv14 32) (_ bv31 32))))
 (let ((?x47 (store ?x45 (_ bv15 32) (_ bv30 32))))
 (let ((?x49 (store ?x47 (_ bv16 32) (_ bv31 32))))
 (let ((?x51 (store ?x49 (_ bv17 32) (_ bv31 32))))
 (let ((?x53 (store ?x51 (_ bv18 32) (_ bv30 32))))
 (let ((?x55 (store ?x53 (_ bv19 32) (_ bv31 32))))
 (let ((?x57 (store ?x55 (_ bv20 32) (_ bv30 32))))
 (let ((?x59 (store ?x57 (_ bv21 32) (_ bv31 32))))
 (let ((?x61 (store ?x59 (_ bv22 32) (_ bv31 32))))
 (let ((?x63 (store ?x61 (_ bv23 32) (_ bv28 32))))
 (let ((?x65 (store ?x63 (_ bv24 32) (_ bv31 32))))
 (let ((?x67 (store ?x65 (_ bv25 32) (_ bv30 32))))
 (let ((?x69 (store ?x67 (_ bv26 32) (_ bv31 32))))
 (let ((?x71 (store ?x69 (_ bv27 32) (_ bv30 32))))
 (let ((?x72 (store ?x71 (_ bv28 32) (_ bv31 32))))
 (let ((?x74 (store ?x72 (_ bv29 32) (_ bv31 32))))
 (let ((?x75 (store ?x74 (_ bv30 32) (_ bv30 32))))
 (let ((?x76 (store ?x75 (_ bv31 32) (_ bv31 32))))
 (let ((?x78 (store ?x76 (_ bv32 32) (_ bv30 32))))
 (let ((?x80 (store ?x78 (_ bv33 32) (_ bv31 32))))
 (let ((?x82 (store ?x80 (_ bv34 32) (_ bv31 32))))
 (let ((?x84 (store ?x82 (_ bv35 32) (_ bv28 32))))
 (let ((?x86 (store ?x84 (_ bv36 32) (_ bv31 32))))
 (let ((?x88 (store ?x86 (_ bv37 32) (_ bv30 32))))
 (let ((?x90 (store ?x88 (_ bv38 32) (_ bv31 32))))
 (let ((?x92 (store ?x90 (_ bv39 32) (_ bv30 32))))
 (let ((?x94 (store ?x92 (_ bv40 32) (_ bv31 32))))
 (let ((?x96 (store ?x94 (_ bv41 32) (_ bv31 32))))
 (let ((?x98 (store ?x96 (_ bv42 32) (_ bv30 32))))
 (let ((?x100 (store ?x98 (_ bv43 32) (_ bv31 32))))
 (let ((?x102 (store ?x100 (_ bv44 32) (_ bv30 32))))
 (let ((?x104 (store ?x102 (_ bv45 32) (_ bv31 32))))
 (let ((?x106 (store ?x104 (_ bv46 32) (_ bv31 32))))
 (let ((?x108 (store ?x106 (_ bv47 32) (_ bv29 32))))
 (let (($x53540 (or (= (_ bv22802 32) (bvadd x_months (_ bv24003 32))) (= (_ bv25202 32) (bvadd x_months (_ bv24003 32))))))
 (let ((?x7304 (ite $x53540 (_ bv28 32) (select ?x108 ?x63836))))
 (let (($x83761 (bvsle (_ bv0 32) x_beta)))
 (and $x83761 (bvslt x_beta ?x7304))))))))))))))))))))))))))))))))))))))))))))))))))))))))
(assert
 (and (= x_months (bvsub (bvadd (bvmul (_ bv2020 32) (_ bv12 32)) (_ bv2 32)) (_ bv24003 32))) (= (_ bv28 32) x_beta)))
(assert
 (let ((?x88208 (bvadd x_months (_ bv12 32))))
(let ((?x29235 (bvsmod ?x88208 (_ bv48 32))))
(let ((?x5105 (ite (bvsgt (_ bv22803 32) (bvadd ?x88208 (_ bv24003 32))) (_ bv1 32) (ite (bvsle (_ bv25203 32) (bvadd ?x88208 (_ bv24003 32))) (_ bv4294967295 32) (_ bv0 32)))))
(let ((?x13 ((as const (Array (_ BitVec 32) (_ BitVec 32))) (_ bv0 32))))
(let ((?x15 (store ?x13 (_ bv0 32) (_ bv31 32))))
(let ((?x18 (store ?x15 (_ bv1 32) (_ bv30 32))))
(let ((?x20 (store ?x18 (_ bv2 32) (_ bv31 32))))
(let ((?x22 (store ?x20 (_ bv3 32) (_ bv30 32))))
(let ((?x24 (store ?x22 (_ bv4 32) (_ bv31 32))))
(let ((?x26 (store ?x24 (_ bv5 32) (_ bv31 32))))
(let ((?x28 (store ?x26 (_ bv6 32) (_ bv30 32))))
(let ((?x30 (store ?x28 (_ bv7 32) (_ bv31 32))))
(let ((?x32 (store ?x30 (_ bv8 32) (_ bv30 32))))
(let ((?x34 (store ?x32 (_ bv9 32) (_ bv31 32))))
(let ((?x36 (store ?x34 (_ bv10 32) (_ bv31 32))))
(let ((?x39 (store ?x36 (_ bv11 32) (_ bv28 32))))
(let ((?x41 (store ?x39 (_ bv12 32) (_ bv31 32))))
(let ((?x43 (store ?x41 (_ bv13 32) (_ bv30 32))))
(let ((?x45 (store ?x43 (_ bv14 32) (_ bv31 32))))
(let ((?x47 (store ?x45 (_ bv15 32) (_ bv30 32))))
(let ((?x49 (store ?x47 (_ bv16 32) (_ bv31 32))))
(let ((?x51 (store ?x49 (_ bv17 32) (_ bv31 32))))
(let ((?x53 (store ?x51 (_ bv18 32) (_ bv30 32))))
(let ((?x55 (store ?x53 (_ bv19 32) (_ bv31 32))))
(let ((?x57 (store ?x55 (_ bv20 32) (_ bv30 32))))
(let ((?x59 (store ?x57 (_ bv21 32) (_ bv31 32))))
(let ((?x61 (store ?x59 (_ bv22 32) (_ bv31 32))))
(let ((?x63 (store ?x61 (_ bv23 32) (_ bv28 32))))
(let ((?x65 (store ?x63 (_ bv24 32) (_ bv31 32))))
(let ((?x67 (store ?x65 (_ bv25 32) (_ bv30 32))))
(let ((?x69 (store ?x67 (_ bv26 32) (_ bv31 32))))
(let ((?x71 (store ?x69 (_ bv27 32) (_ bv30 32))))
(let ((?x72 (store ?x71 (_ bv28 32) (_ bv31 32))))
(let ((?x74 (store ?x72 (_ bv29 32) (_ bv31 32))))
(let ((?x75 (store ?x74 (_ bv30 32) (_ bv30 32))))
(let ((?x76 (store ?x75 (_ bv31 32) (_ bv31 32))))
(let ((?x78 (store ?x76 (_ bv32 32) (_ bv30 32))))
(let ((?x80 (store ?x78 (_ bv33 32) (_ bv31 32))))
(let ((?x82 (store ?x80 (_ bv34 32) (_ bv31 32))))
(let ((?x84 (store ?x82 (_ bv35 32) (_ bv28 32))))
(let ((?x86 (store ?x84 (_ bv36 32) (_ bv31 32))))
(let ((?x88 (store ?x86 (_ bv37 32) (_ bv30 32))))
(let ((?x90 (store ?x88 (_ bv38 32) (_ bv31 32))))
(let ((?x92 (store ?x90 (_ bv39 32) (_ bv30 32))))
(let ((?x94 (store ?x92 (_ bv40 32) (_ bv31 32))))
(let ((?x96 (store ?x94 (_ bv41 32) (_ bv31 32))))
(let ((?x98 (store ?x96 (_ bv42 32) (_ bv30 32))))
(let ((?x100 (store ?x98 (_ bv43 32) (_ bv31 32))))
(let ((?x102 (store ?x100 (_ bv44 32) (_ bv30 32))))
(let ((?x104 (store ?x102 (_ bv45 32) (_ bv31 32))))
(let ((?x106 (store ?x104 (_ bv46 32) (_ bv31 32))))
(let ((?x108 (store ?x106 (_ bv47 32) (_ bv29 32))))
(let ((?x9972 (ite (or (= (_ bv22802 32) (bvadd ?x88208 (_ bv24003 32))) (= (_ bv25202 32) (bvadd ?x88208 (_ bv24003 32)))) (_ bv28 32) (select ?x108 ?x29235))))
(let ((?x26839 (bvsub ?x9972 (_ bv1 32))))
(let ((?x79111 (ite (bvsgt (_ bv0 32) x_beta) (_ bv0 32) (ite (bvsgt x_beta ?x26839) ?x26839 x_beta))))
(let ((?x114 (store (store (store (store ?x13 (_ bv0 32) (_ bv0 32)) (_ bv1 32) (_ bv31 32)) (_ bv2 32) (_ bv61 32)) (_ bv3 32) (_ bv92 32))))
(let ((?x122 (store (store (store (store ?x114 (_ bv4 32) (_ bv122 32)) (_ bv5 32) (_ bv153 32)) (_ bv6 32) (_ bv184 32)) (_ bv7 32) (_ bv214 32))))
(let ((?x130 (store (store (store (store ?x122 (_ bv8 32) (_ bv245 32)) (_ bv9 32) (_ bv275 32)) (_ bv10 32) (_ bv306 32)) (_ bv11 32) (_ bv337 32))))
(let ((?x138 (store (store (store (store ?x130 (_ bv12 32) (_ bv365 32)) (_ bv13 32) (_ bv396 32)) (_ bv14 32) (_ bv426 32)) (_ bv15 32) (_ bv457 32))))
(let ((?x146 (store (store (store (store ?x138 (_ bv16 32) (_ bv487 32)) (_ bv17 32) (_ bv518 32)) (_ bv18 32) (_ bv549 32)) (_ bv19 32) (_ bv579 32))))
(let ((?x154 (store (store (store (store ?x146 (_ bv20 32) (_ bv610 32)) (_ bv21 32) (_ bv640 32)) (_ bv22 32) (_ bv671 32)) (_ bv23 32) (_ bv702 32))))
(let ((?x162 (store (store (store (store ?x154 (_ bv24 32) (_ bv730 32)) (_ bv25 32) (_ bv761 32)) (_ bv26 32) (_ bv791 32)) (_ bv27 32) (_ bv822 32))))
(let ((?x170 (store (store (store (store ?x162 (_ bv28 32) (_ bv852 32)) (_ bv29 32) (_ bv883 32)) (_ bv30 32) (_ bv914 32)) (_ bv31 32) (_ bv944 32))))
(let ((?x178 (store (store (store (store ?x170 (_ bv32 32) (_ bv975 32)) (_ bv33 32) (_ bv1005 32)) (_ bv34 32) (_ bv1036 32)) (_ bv35 32) (_ bv1067 32))))
(let ((?x186 (store (store (store (store ?x178 (_ bv36 32) (_ bv1095 32)) (_ bv37 32) (_ bv1126 32)) (_ bv38 32) (_ bv1156 32)) (_ bv39 32) (_ bv1187 32))))
(let ((?x194 (store (store (store (store ?x186 (_ bv40 32) (_ bv1217 32)) (_ bv41 32) (_ bv1248 32)) (_ bv42 32) (_ bv1279 32)) (_ bv43 32) (_ bv1309 32))))
(let ((?x202 (store (store (store (store ?x194 (_ bv44 32) (_ bv1340 32)) (_ bv45 32) (_ bv1370 32)) (_ bv46 32) (_ bv1401 32)) (_ bv47 32) (_ bv1432 32))))
(let ((?x5995 (bvadd (bvadd (bvadd (select ?x202 ?x29235) ?x79111) ?x5105) (_ bv0 32))))
(let ((?x22030 (ite (bvuge ?x5995 (_ bv2147483648 32)) (bvsub ?x5995 (_ bv0 32)) ?x5995)))
(let ((?x76915 (bvsdiv ?x22030 (_ bv1461 32))))
(let ((?x5416 (ite (and (bvuge ?x22030 (_ bv2147483648 32)) (and (distinct (_ bv0 32) (bvsmod ?x22030 (_ bv1461 32))) true)) (bvsub ?x76915 (_ bv1 32)) ?x76915)))
(let ((?x70490 (bvadd ?x88208 (bvmul ?x5416 (_ bv48 32)))))
(let ((?x86979 (bvadd (bvadd ?x70490 (bvsub (_ bv1 32) ?x29235)) (_ bv24003 32))))
(let ((?x63426 (bvadd (select ?x202 (_ bv1 32)) (ite (bvsgt (_ bv22803 32) ?x86979) (_ bv1 32) (ite (bvsle (_ bv25203 32) ?x86979) (_ bv4294967295 32) (_ bv0 32))))))
(let ((?x10455 (bvsmod ?x5995 (_ bv1461 32))))
(let ((?x71692 (ite (bvsle (_ bv25203 32) (bvadd (bvadd ?x70490 (bvsub (_ bv2 32) ?x29235)) (_ bv24003 32))) (_ bv4294967295 32) (_ bv0 32))))
(let ((?x80474 (ite (bvsgt (_ bv22803 32) (bvadd (bvadd ?x70490 (bvsub (_ bv2 32) ?x29235)) (_ bv24003 32))) (_ bv1 32) ?x71692)))
(let ((?x54440 (ite (bvsge ?x10455 (bvadd (select ?x202 (_ bv2 32)) ?x80474)) (_ bv2 32) (ite (bvsge ?x10455 ?x63426) (_ bv1 32) (_ bv0 32)))))
(let ((?x79437 (ite (bvsle (_ bv25203 32) (bvadd (bvadd ?x70490 (bvsub (_ bv3 32) ?x29235)) (_ bv24003 32))) (_ bv4294967295 32) (_ bv0 32))))
(let ((?x69173 (ite (bvsgt (_ bv22803 32) (bvadd (bvadd ?x70490 (bvsub (_ bv3 32) ?x29235)) (_ bv24003 32))) (_ bv1 32) ?x79437)))
(let ((?x88991 (ite (bvsle (_ bv25203 32) (bvadd (bvadd ?x70490 (bvsub (_ bv4 32) ?x29235)) (_ bv24003 32))) (_ bv4294967295 32) (_ bv0 32))))
(let ((?x87078 (ite (bvsgt (_ bv22803 32) (bvadd (bvadd ?x70490 (bvsub (_ bv4 32) ?x29235)) (_ bv24003 32))) (_ bv1 32) ?x88991)))
(let ((?x58950 (ite (bvsge ?x10455 (bvadd (select ?x202 (_ bv4 32)) ?x87078)) (_ bv4 32) (ite (bvsge ?x10455 (bvadd (select ?x202 (_ bv3 32)) ?x69173)) (_ bv3 32) ?x54440))))
(let ((?x49613 (ite (bvsle (_ bv25203 32) (bvadd (bvadd ?x70490 (bvsub (_ bv5 32) ?x29235)) (_ bv24003 32))) (_ bv4294967295 32) (_ bv0 32))))
(let ((?x29672 (ite (bvsgt (_ bv22803 32) (bvadd (bvadd ?x70490 (bvsub (_ bv5 32) ?x29235)) (_ bv24003 32))) (_ bv1 32) ?x49613)))
(let ((?x53359 (ite (bvsle (_ bv25203 32) (bvadd (bvadd ?x70490 (bvsub (_ bv6 32) ?x29235)) (_ bv24003 32))) (_ bv4294967295 32) (_ bv0 32))))
(let ((?x55266 (ite (bvsgt (_ bv22803 32) (bvadd (bvadd ?x70490 (bvsub (_ bv6 32) ?x29235)) (_ bv24003 32))) (_ bv1 32) ?x53359)))
(let ((?x38037 (ite (bvsge ?x10455 (bvadd (select ?x202 (_ bv6 32)) ?x55266)) (_ bv6 32) (ite (bvsge ?x10455 (bvadd (select ?x202 (_ bv5 32)) ?x29672)) (_ bv5 32) ?x58950))))
(let ((?x47741 (ite (bvsle (_ bv25203 32) (bvadd (bvadd ?x70490 (bvsub (_ bv7 32) ?x29235)) (_ bv24003 32))) (_ bv4294967295 32) (_ bv0 32))))
(let ((?x74776 (ite (bvsgt (_ bv22803 32) (bvadd (bvadd ?x70490 (bvsub (_ bv7 32) ?x29235)) (_ bv24003 32))) (_ bv1 32) ?x47741)))
(let ((?x79149 (ite (bvsle (_ bv25203 32) (bvadd (bvadd ?x70490 (bvsub (_ bv8 32) ?x29235)) (_ bv24003 32))) (_ bv4294967295 32) (_ bv0 32))))
(let ((?x78248 (ite (bvsgt (_ bv22803 32) (bvadd (bvadd ?x70490 (bvsub (_ bv8 32) ?x29235)) (_ bv24003 32))) (_ bv1 32) ?x79149)))
(let ((?x47645 (ite (bvsge ?x10455 (bvadd (select ?x202 (_ bv8 32)) ?x78248)) (_ bv8 32) (ite (bvsge ?x10455 (bvadd (select ?x202 (_ bv7 32)) ?x74776)) (_ bv7 32) ?x38037))))
(let ((?x23379 (ite (bvsle (_ bv25203 32) (bvadd (bvadd ?x70490 (bvsub (_ bv9 32) ?x29235)) (_ bv24003 32))) (_ bv4294967295 32) (_ bv0 32))))
(let ((?x52499 (ite (bvsgt (_ bv22803 32) (bvadd (bvadd ?x70490 (bvsub (_ bv9 32) ?x29235)) (_ bv24003 32))) (_ bv1 32) ?x23379)))
(let ((?x45654 (ite (bvsle (_ bv25203 32) (bvadd (bvadd ?x70490 (bvsub (_ bv10 32) ?x29235)) (_ bv24003 32))) (_ bv4294967295 32) (_ bv0 32))))
(let ((?x15920 (ite (bvsgt (_ bv22803 32) (bvadd (bvadd ?x70490 (bvsub (_ bv10 32) ?x29235)) (_ bv24003 32))) (_ bv1 32) ?x45654)))
(let ((?x64576 (ite (bvsge ?x10455 (bvadd (select ?x202 (_ bv10 32)) ?x15920)) (_ bv10 32) (ite (bvsge ?x10455 (bvadd (select ?x202 (_ bv9 32)) ?x52499)) (_ bv9 32) ?x47645))))
(let ((?x47080 (ite (bvsle (_ bv25203 32) (bvadd (bvadd ?x70490 (bvsub (_ bv11 32) ?x29235)) (_ bv24003 32))) (_ bv4294967295 32) (_ bv0 32))))
(let ((?x47855 (ite (bvsgt (_ bv22803 32) (bvadd (bvadd ?x70490 (bvsub (_ bv11 32) ?x29235)) (_ bv24003 32))) (_ bv1 32) ?x47080)))
(let ((?x2744 (ite (bvsle (_ bv25203 32) (bvadd (bvadd ?x70490 (bvsub (_ bv12 32) ?x29235)) (_ bv24003 32))) (_ bv4294967295 32) (_ bv0 32))))
(let ((?x55388 (ite (bvsgt (_ bv22803 32) (bvadd (bvadd ?x70490 (bvsub (_ bv12 32) ?x29235)) (_ bv24003 32))) (_ bv1 32) ?x2744)))
(let ((?x40505 (ite (bvsge ?x10455 (bvadd (select ?x202 (_ bv12 32)) ?x55388)) (_ bv12 32) (ite (bvsge ?x10455 (bvadd (select ?x202 (_ bv11 32)) ?x47855)) (_ bv11 32) ?x64576))))
(let ((?x43296 (ite (bvsle (_ bv25203 32) (bvadd (bvadd ?x70490 (bvsub (_ bv13 32) ?x29235)) (_ bv24003 32))) (_ bv4294967295 32) (_ bv0 32))))
(let ((?x42066 (ite (bvsgt (_ bv22803 32) (bvadd (bvadd ?x70490 (bvsub (_ bv13 32) ?x29235)) (_ bv24003 32))) (_ bv1 32) ?x43296)))
(let ((?x40697 (ite (bvsle (_ bv25203 32) (bvadd (bvadd ?x70490 (bvsub (_ bv14 32) ?x29235)) (_ bv24003 32))) (_ bv4294967295 32) (_ bv0 32))))
(let ((?x19512 (ite (bvsgt (_ bv22803 32) (bvadd (bvadd ?x70490 (bvsub (_ bv14 32) ?x29235)) (_ bv24003 32))) (_ bv1 32) ?x40697)))
(let ((?x56144 (ite (bvsge ?x10455 (bvadd (select ?x202 (_ bv14 32)) ?x19512)) (_ bv14 32) (ite (bvsge ?x10455 (bvadd (select ?x202 (_ bv13 32)) ?x42066)) (_ bv13 32) ?x40505))))
(let ((?x37047 (ite (bvsle (_ bv25203 32) (bvadd (bvadd ?x70490 (bvsub (_ bv15 32) ?x29235)) (_ bv24003 32))) (_ bv4294967295 32) (_ bv0 32))))
(let ((?x66137 (ite (bvsgt (_ bv22803 32) (bvadd (bvadd ?x70490 (bvsub (_ bv15 32) ?x29235)) (_ bv24003 32))) (_ bv1 32) ?x37047)))
(let ((?x63998 (ite (bvsle (_ bv25203 32) (bvadd (bvadd ?x70490 (bvsub (_ bv16 32) ?x29235)) (_ bv24003 32))) (_ bv4294967295 32) (_ bv0 32))))
(let ((?x45205 (ite (bvsgt (_ bv22803 32) (bvadd (bvadd ?x70490 (bvsub (_ bv16 32) ?x29235)) (_ bv24003 32))) (_ bv1 32) ?x63998)))
(let ((?x13536 (ite (bvsge ?x10455 (bvadd (select ?x202 (_ bv16 32)) ?x45205)) (_ bv16 32) (ite (bvsge ?x10455 (bvadd (select ?x202 (_ bv15 32)) ?x66137)) (_ bv15 32) ?x56144))))
(let ((?x80602 (ite (bvsle (_ bv25203 32) (bvadd (bvadd ?x70490 (bvsub (_ bv17 32) ?x29235)) (_ bv24003 32))) (_ bv4294967295 32) (_ bv0 32))))
(let ((?x69803 (ite (bvsgt (_ bv22803 32) (bvadd (bvadd ?x70490 (bvsub (_ bv17 32) ?x29235)) (_ bv24003 32))) (_ bv1 32) ?x80602)))
(let ((?x60422 (ite (bvsle (_ bv25203 32) (bvadd (bvadd ?x70490 (bvsub (_ bv18 32) ?x29235)) (_ bv24003 32))) (_ bv4294967295 32) (_ bv0 32))))
(let ((?x76475 (ite (bvsgt (_ bv22803 32) (bvadd (bvadd ?x70490 (bvsub (_ bv18 32) ?x29235)) (_ bv24003 32))) (_ bv1 32) ?x60422)))
(let ((?x49270 (ite (bvsge ?x10455 (bvadd (select ?x202 (_ bv18 32)) ?x76475)) (_ bv18 32) (ite (bvsge ?x10455 (bvadd (select ?x202 (_ bv17 32)) ?x69803)) (_ bv17 32) ?x13536))))
(let ((?x19427 (ite (bvsle (_ bv25203 32) (bvadd (bvadd ?x70490 (bvsub (_ bv19 32) ?x29235)) (_ bv24003 32))) (_ bv4294967295 32) (_ bv0 32))))
(let ((?x68069 (ite (bvsgt (_ bv22803 32) (bvadd (bvadd ?x70490 (bvsub (_ bv19 32) ?x29235)) (_ bv24003 32))) (_ bv1 32) ?x19427)))
(let ((?x72148 (ite (bvsle (_ bv25203 32) (bvadd (bvadd ?x70490 (bvsub (_ bv20 32) ?x29235)) (_ bv24003 32))) (_ bv4294967295 32) (_ bv0 32))))
(let ((?x91491 (ite (bvsgt (_ bv22803 32) (bvadd (bvadd ?x70490 (bvsub (_ bv20 32) ?x29235)) (_ bv24003 32))) (_ bv1 32) ?x72148)))
(let ((?x66238 (ite (bvsge ?x10455 (bvadd (select ?x202 (_ bv20 32)) ?x91491)) (_ bv20 32) (ite (bvsge ?x10455 (bvadd (select ?x202 (_ bv19 32)) ?x68069)) (_ bv19 32) ?x49270))))
(let ((?x65134 (ite (bvsle (_ bv25203 32) (bvadd (bvadd ?x70490 (bvsub (_ bv21 32) ?x29235)) (_ bv24003 32))) (_ bv4294967295 32) (_ bv0 32))))
(let ((?x55732 (ite (bvsgt (_ bv22803 32) (bvadd (bvadd ?x70490 (bvsub (_ bv21 32) ?x29235)) (_ bv24003 32))) (_ bv1 32) ?x65134)))
(let ((?x15997 (ite (bvsle (_ bv25203 32) (bvadd (bvadd ?x70490 (bvsub (_ bv22 32) ?x29235)) (_ bv24003 32))) (_ bv4294967295 32) (_ bv0 32))))
(let ((?x81406 (ite (bvsgt (_ bv22803 32) (bvadd (bvadd ?x70490 (bvsub (_ bv22 32) ?x29235)) (_ bv24003 32))) (_ bv1 32) ?x15997)))
(let ((?x49934 (ite (bvsge ?x10455 (bvadd (select ?x202 (_ bv22 32)) ?x81406)) (_ bv22 32) (ite (bvsge ?x10455 (bvadd (select ?x202 (_ bv21 32)) ?x55732)) (_ bv21 32) ?x66238))))
(let ((?x91266 (ite (bvsle (_ bv25203 32) (bvadd (bvadd ?x70490 (bvsub (_ bv23 32) ?x29235)) (_ bv24003 32))) (_ bv4294967295 32) (_ bv0 32))))
(let ((?x85995 (ite (bvsgt (_ bv22803 32) (bvadd (bvadd ?x70490 (bvsub (_ bv23 32) ?x29235)) (_ bv24003 32))) (_ bv1 32) ?x91266)))
(let ((?x12324 (ite (bvsle (_ bv25203 32) (bvadd (bvadd ?x70490 (bvsub (_ bv24 32) ?x29235)) (_ bv24003 32))) (_ bv4294967295 32) (_ bv0 32))))
(let ((?x40849 (ite (bvsgt (_ bv22803 32) (bvadd (bvadd ?x70490 (bvsub (_ bv24 32) ?x29235)) (_ bv24003 32))) (_ bv1 32) ?x12324)))
(let ((?x21139 (ite (bvsge ?x10455 (bvadd (select ?x202 (_ bv24 32)) ?x40849)) (_ bv24 32) (ite (bvsge ?x10455 (bvadd (select ?x202 (_ bv23 32)) ?x85995)) (_ bv23 32) ?x49934))))
(let ((?x55641 (ite (bvsle (_ bv25203 32) (bvadd (bvadd ?x70490 (bvsub (_ bv25 32) ?x29235)) (_ bv24003 32))) (_ bv4294967295 32) (_ bv0 32))))
(let ((?x68786 (ite (bvsgt (_ bv22803 32) (bvadd (bvadd ?x70490 (bvsub (_ bv25 32) ?x29235)) (_ bv24003 32))) (_ bv1 32) ?x55641)))
(let ((?x799 (ite (bvsle (_ bv25203 32) (bvadd (bvadd ?x70490 (bvsub (_ bv26 32) ?x29235)) (_ bv24003 32))) (_ bv4294967295 32) (_ bv0 32))))
(let ((?x32199 (ite (bvsgt (_ bv22803 32) (bvadd (bvadd ?x70490 (bvsub (_ bv26 32) ?x29235)) (_ bv24003 32))) (_ bv1 32) ?x799)))
(let ((?x31252 (ite (bvsge ?x10455 (bvadd (select ?x202 (_ bv26 32)) ?x32199)) (_ bv26 32) (ite (bvsge ?x10455 (bvadd (select ?x202 (_ bv25 32)) ?x68786)) (_ bv25 32) ?x21139))))
(let ((?x61093 (ite (bvsle (_ bv25203 32) (bvadd (bvadd ?x70490 (bvsub (_ bv27 32) ?x29235)) (_ bv24003 32))) (_ bv4294967295 32) (_ bv0 32))))
(let ((?x59473 (ite (bvsgt (_ bv22803 32) (bvadd (bvadd ?x70490 (bvsub (_ bv27 32) ?x29235)) (_ bv24003 32))) (_ bv1 32) ?x61093)))
(let ((?x6784 (ite (bvsle (_ bv25203 32) (bvadd (bvadd ?x70490 (bvsub (_ bv28 32) ?x29235)) (_ bv24003 32))) (_ bv4294967295 32) (_ bv0 32))))
(let ((?x20526 (ite (bvsgt (_ bv22803 32) (bvadd (bvadd ?x70490 (bvsub (_ bv28 32) ?x29235)) (_ bv24003 32))) (_ bv1 32) ?x6784)))
(let ((?x68628 (ite (bvsge ?x10455 (bvadd (select ?x202 (_ bv28 32)) ?x20526)) (_ bv28 32) (ite (bvsge ?x10455 (bvadd (select ?x202 (_ bv27 32)) ?x59473)) (_ bv27 32) ?x31252))))
(let ((?x95525 (ite (bvsle (_ bv25203 32) (bvadd (bvadd ?x70490 (bvsub (_ bv29 32) ?x29235)) (_ bv24003 32))) (_ bv4294967295 32) (_ bv0 32))))
(let ((?x57521 (ite (bvsgt (_ bv22803 32) (bvadd (bvadd ?x70490 (bvsub (_ bv29 32) ?x29235)) (_ bv24003 32))) (_ bv1 32) ?x95525)))
(let ((?x28260 (ite (bvsle (_ bv25203 32) (bvadd (bvadd ?x70490 (bvsub (_ bv30 32) ?x29235)) (_ bv24003 32))) (_ bv4294967295 32) (_ bv0 32))))
(let ((?x11446 (ite (bvsgt (_ bv22803 32) (bvadd (bvadd ?x70490 (bvsub (_ bv30 32) ?x29235)) (_ bv24003 32))) (_ bv1 32) ?x28260)))
(let ((?x91537 (ite (bvsge ?x10455 (bvadd (select ?x202 (_ bv30 32)) ?x11446)) (_ bv30 32) (ite (bvsge ?x10455 (bvadd (select ?x202 (_ bv29 32)) ?x57521)) (_ bv29 32) ?x68628))))
(let ((?x87543 (ite (bvsle (_ bv25203 32) (bvadd (bvadd ?x70490 (bvsub (_ bv31 32) ?x29235)) (_ bv24003 32))) (_ bv4294967295 32) (_ bv0 32))))
(let ((?x10160 (ite (bvsgt (_ bv22803 32) (bvadd (bvadd ?x70490 (bvsub (_ bv31 32) ?x29235)) (_ bv24003 32))) (_ bv1 32) ?x87543)))
(let ((?x26634 (ite (bvsle (_ bv25203 32) (bvadd (bvadd ?x70490 (bvsub (_ bv32 32) ?x29235)) (_ bv24003 32))) (_ bv4294967295 32) (_ bv0 32))))
(let ((?x2281 (ite (bvsgt (_ bv22803 32) (bvadd (bvadd ?x70490 (bvsub (_ bv32 32) ?x29235)) (_ bv24003 32))) (_ bv1 32) ?x26634)))
(let ((?x74897 (ite (bvsge ?x10455 (bvadd (select ?x202 (_ bv32 32)) ?x2281)) (_ bv32 32) (ite (bvsge ?x10455 (bvadd (select ?x202 (_ bv31 32)) ?x10160)) (_ bv31 32) ?x91537))))
(let ((?x24060 (ite (bvsle (_ bv25203 32) (bvadd (bvadd ?x70490 (bvsub (_ bv33 32) ?x29235)) (_ bv24003 32))) (_ bv4294967295 32) (_ bv0 32))))
(let ((?x29104 (ite (bvsgt (_ bv22803 32) (bvadd (bvadd ?x70490 (bvsub (_ bv33 32) ?x29235)) (_ bv24003 32))) (_ bv1 32) ?x24060)))
(let ((?x83872 (ite (bvsle (_ bv25203 32) (bvadd (bvadd ?x70490 (bvsub (_ bv34 32) ?x29235)) (_ bv24003 32))) (_ bv4294967295 32) (_ bv0 32))))
(let ((?x65296 (ite (bvsgt (_ bv22803 32) (bvadd (bvadd ?x70490 (bvsub (_ bv34 32) ?x29235)) (_ bv24003 32))) (_ bv1 32) ?x83872)))
(let ((?x91502 (ite (bvsge ?x10455 (bvadd (select ?x202 (_ bv34 32)) ?x65296)) (_ bv34 32) (ite (bvsge ?x10455 (bvadd (select ?x202 (_ bv33 32)) ?x29104)) (_ bv33 32) ?x74897))))
(let ((?x91538 (ite (bvsle (_ bv25203 32) (bvadd (bvadd ?x70490 (bvsub (_ bv35 32) ?x29235)) (_ bv24003 32))) (_ bv4294967295 32) (_ bv0 32))))
(let ((?x91271 (ite (bvsgt (_ bv22803 32) (bvadd (bvadd ?x70490 (bvsub (_ bv35 32) ?x29235)) (_ bv24003 32))) (_ bv1 32) ?x91538)))
(let ((?x53698 (ite (bvsle (_ bv25203 32) (bvadd (bvadd ?x70490 (bvsub (_ bv36 32) ?x29235)) (_ bv24003 32))) (_ bv4294967295 32) (_ bv0 32))))
(let ((?x87524 (ite (bvsgt (_ bv22803 32) (bvadd (bvadd ?x70490 (bvsub (_ bv36 32) ?x29235)) (_ bv24003 32))) (_ bv1 32) ?x53698)))
(let ((?x54334 (ite (bvsge ?x10455 (bvadd (select ?x202 (_ bv36 32)) ?x87524)) (_ bv36 32) (ite (bvsge ?x10455 (bvadd (select ?x202 (_ bv35 32)) ?x91271)) (_ bv35 32) ?x91502))))
(let ((?x62787 (ite (bvsle (_ bv25203 32) (bvadd (bvadd ?x70490 (bvsub (_ bv37 32) ?x29235)) (_ bv24003 32))) (_ bv4294967295 32) (_ bv0 32))))
(let ((?x19303 (ite (bvsgt (_ bv22803 32) (bvadd (bvadd ?x70490 (bvsub (_ bv37 32) ?x29235)) (_ bv24003 32))) (_ bv1 32) ?x62787)))
(let ((?x64258 (ite (bvsle (_ bv25203 32) (bvadd (bvadd ?x70490 (bvsub (_ bv38 32) ?x29235)) (_ bv24003 32))) (_ bv4294967295 32) (_ bv0 32))))
(let ((?x96302 (ite (bvsgt (_ bv22803 32) (bvadd (bvadd ?x70490 (bvsub (_ bv38 32) ?x29235)) (_ bv24003 32))) (_ bv1 32) ?x64258)))
(let ((?x54438 (ite (bvsge ?x10455 (bvadd (select ?x202 (_ bv38 32)) ?x96302)) (_ bv38 32) (ite (bvsge ?x10455 (bvadd (select ?x202 (_ bv37 32)) ?x19303)) (_ bv37 32) ?x54334))))
(let ((?x35318 (ite (bvsle (_ bv25203 32) (bvadd (bvadd ?x70490 (bvsub (_ bv39 32) ?x29235)) (_ bv24003 32))) (_ bv4294967295 32) (_ bv0 32))))
(let ((?x53418 (ite (bvsgt (_ bv22803 32) (bvadd (bvadd ?x70490 (bvsub (_ bv39 32) ?x29235)) (_ bv24003 32))) (_ bv1 32) ?x35318)))
(let ((?x42383 (ite (bvsle (_ bv25203 32) (bvadd (bvadd ?x70490 (bvsub (_ bv40 32) ?x29235)) (_ bv24003 32))) (_ bv4294967295 32) (_ bv0 32))))
(let ((?x76397 (ite (bvsgt (_ bv22803 32) (bvadd (bvadd ?x70490 (bvsub (_ bv40 32) ?x29235)) (_ bv24003 32))) (_ bv1 32) ?x42383)))
(let ((?x39050 (ite (bvsge ?x10455 (bvadd (select ?x202 (_ bv40 32)) ?x76397)) (_ bv40 32) (ite (bvsge ?x10455 (bvadd (select ?x202 (_ bv39 32)) ?x53418)) (_ bv39 32) ?x54438))))
(let ((?x4756 (ite (bvsle (_ bv25203 32) (bvadd (bvadd ?x70490 (bvsub (_ bv41 32) ?x29235)) (_ bv24003 32))) (_ bv4294967295 32) (_ bv0 32))))
(let ((?x55394 (ite (bvsgt (_ bv22803 32) (bvadd (bvadd ?x70490 (bvsub (_ bv41 32) ?x29235)) (_ bv24003 32))) (_ bv1 32) ?x4756)))
(let ((?x58883 (ite (bvsle (_ bv25203 32) (bvadd (bvadd ?x70490 (bvsub (_ bv42 32) ?x29235)) (_ bv24003 32))) (_ bv4294967295 32) (_ bv0 32))))
(let ((?x67825 (ite (bvsgt (_ bv22803 32) (bvadd (bvadd ?x70490 (bvsub (_ bv42 32) ?x29235)) (_ bv24003 32))) (_ bv1 32) ?x58883)))
(let ((?x68477 (ite (bvsge ?x10455 (bvadd (select ?x202 (_ bv42 32)) ?x67825)) (_ bv42 32) (ite (bvsge ?x10455 (bvadd (select ?x202 (_ bv41 32)) ?x55394)) (_ bv41 32) ?x39050))))
(let ((?x91000 (ite (bvsle (_ bv25203 32) (bvadd (bvadd ?x70490 (bvsub (_ bv43 32) ?x29235)) (_ bv24003 32))) (_ bv4294967295 32) (_ bv0 32))))
(let ((?x37956 (ite (bvsgt (_ bv22803 32) (bvadd (bvadd ?x70490 (bvsub (_ bv43 32) ?x29235)) (_ bv24003 32))) (_ bv1 32) ?x91000)))
(let ((?x71235 (ite (bvsle (_ bv25203 32) (bvadd (bvadd ?x70490 (bvsub (_ bv44 32) ?x29235)) (_ bv24003 32))) (_ bv4294967295 32) (_ bv0 32))))
(let ((?x54633 (ite (bvsgt (_ bv22803 32) (bvadd (bvadd ?x70490 (bvsub (_ bv44 32) ?x29235)) (_ bv24003 32))) (_ bv1 32) ?x71235)))
(let ((?x12896 (ite (bvsge ?x10455 (bvadd (select ?x202 (_ bv44 32)) ?x54633)) (_ bv44 32) (ite (bvsge ?x10455 (bvadd (select ?x202 (_ bv43 32)) ?x37956)) (_ bv43 32) ?x68477))))
(let ((?x83173 (ite (bvsle (_ bv25203 32) (bvadd (bvadd ?x70490 (bvsub (_ bv45 32) ?x29235)) (_ bv24003 32))) (_ bv4294967295 32) (_ bv0 32))))
(let ((?x54402 (ite (bvsgt (_ bv22803 32) (bvadd (bvadd ?x70490 (bvsub (_ bv45 32) ?x29235)) (_ bv24003 32))) (_ bv1 32) ?x83173)))
(let ((?x47756 (ite (bvsle (_ bv25203 32) (bvadd (bvadd ?x70490 (bvsub (_ bv46 32) ?x29235)) (_ bv24003 32))) (_ bv4294967295 32) (_ bv0 32))))
(let ((?x79251 (ite (bvsgt (_ bv22803 32) (bvadd (bvadd ?x70490 (bvsub (_ bv46 32) ?x29235)) (_ bv24003 32))) (_ bv1 32) ?x47756)))
(let ((?x29581 (ite (bvsge ?x10455 (bvadd (select ?x202 (_ bv46 32)) ?x79251)) (_ bv46 32) (ite (bvsge ?x10455 (bvadd (select ?x202 (_ bv45 32)) ?x54402)) (_ bv45 32) ?x12896))))
(let ((?x59881 (ite (bvsle (_ bv25203 32) (bvadd (bvadd ?x70490 (bvsub (_ bv47 32) ?x29235)) (_ bv24003 32))) (_ bv4294967295 32) (_ bv0 32))))
(let ((?x48030 (ite (bvsgt (_ bv22803 32) (bvadd (bvadd ?x70490 (bvsub (_ bv47 32) ?x29235)) (_ bv24003 32))) (_ bv1 32) ?x59881)))
(let ((?x2671 (ite (bvsge ?x10455 (bvadd (select ?x202 (_ bv47 32)) ?x48030)) (_ bv47 32) ?x29581)))
(let ((?x29913 (bvadd ?x70490 (bvsub ?x2671 ?x29235))))
(let ((?x55261 (bvadd ?x29913 (_ bv24003 32))))
(let ((?x47751 (bvadd (select ?x202 ?x2671) (ite (bvsgt (_ bv22803 32) ?x55261) (_ bv1 32) (ite (bvsle (_ bv25203 32) ?x55261) (_ bv4294967295 32) (_ bv0 32))))))
(let ((?x24384 (bvsub ?x10455 ?x47751)))
(let ((?x47844 (ite (or (= (_ bv22802 32) ?x55261) (= (_ bv25202 32) ?x55261)) (_ bv28 32) (select ?x108 ?x2671))))
(let ((?x4941 (ite (= (_ bv1 32) (ite (bvsge ?x24384 ?x47844) (_ bv1 32) (_ bv0 32))) (bvsub ?x24384 ?x47844) ?x24384)))
(let (($x20748 (= (bvadd ?x29913 (ite (bvsge ?x24384 ?x47844) (_ bv1 32) (_ bv0 32))) (bvsub (bvadd (bvmul (_ bv2021 32) (_ bv12 32)) (_ bv2 32)) (_ bv24003 32)))))
(and $x20748 (= (_ bv27 32) ?x4941)))))))))))))))))))))))))))))))))))))))))))))))))))))))))))))))))))))))))))))))))))))))))))))))))))))))))))))))))))))))))))))))))))))))))))))))))))))))))))))))))))))))))))))))))))))))))))))))))))))))))
(check-sat)
